DIMENSION: 96
1
29
30
31
32
36
37
38
35
34
33
44
45
46
47
48
54
58
56
57
69
70
82
81
83
91
90
89
87
88
78
85
86
84
74
76
77
75
73
72
71
59
60
61
62
63
64
66
67
68
65
27
28
25
24
23
26
22
21
19
18
20
17
16
15
14
13
12
10
9
8
7
6
5
4
2
3
11
39
41
40
42
43
49
50
52
53
55
51
79
80
95
92
93
94
